
Gurobi 11.0.1 (win64) logging started Wed May 15 14:52:15 2024

Set parameter LogFile to value "output/solver_log27.txt"
Gurobi Optimizer version 11.0.1 build v11.0.1rc0 (win64 - Windows 11.0 (22631.2))

CPU model: 11th Gen Intel(R) Core(TM) i7-1165G7 @ 2.80GHz, instruction set [SSE2|AVX|AVX2|AVX512]
Thread count: 4 physical cores, 8 logical processors, using up to 8 threads

Optimize a model with 2491 rows, 567 columns and 47193 nonzeros
Model fingerprint: 0x7758b96b
Variable types: 248 continuous, 319 integer (319 binary)
Coefficient statistics:
  Matrix range     [4e-01, 1e+05]
  Objective range  [1e+00, 1e+02]
  Bounds range     [1e+00, 1e+00]
  RHS range        [1e-02, 1e+05]

User MIP start produced solution with objective 39892 (0.01s)
User MIP start produced solution with objective 39892 (0.01s)
Loaded user MIP start with objective 39892

Presolve removed 184 rows and 163 columns
Presolve time: 0.05s
Presolved: 2307 rows, 404 columns, 45231 nonzeros
Variable types: 235 continuous, 169 integer (165 binary)

Root relaxation: objective 4.675509e+04, 620 iterations, 0.04 seconds (0.08 work units)

    Nodes    |    Current Node    |     Objective Bounds      |     Work
 Expl Unexpl |  Obj  Depth IntInf | Incumbent    BestBd   Gap | It/Node Time

     0     0 46755.0916    0   24 39891.9568 46755.0916  17.2%     -    0s
     0     0 46557.7380    0   22 39891.9568 46557.7380  16.7%     -    0s
     0     0 46473.8312    0   25 39891.9568 46473.8312  16.5%     -    0s
     0     0 45913.5402    0   25 39891.9568 45913.5402  15.1%     -    0s
     0     0 45913.5402    0   25 39891.9568 45913.5402  15.1%     -    0s
     0     0 45811.8498    0   31 39891.9568 45811.8498  14.8%     -    0s
     0     0 45036.0570    0   36 39891.9568 45036.0570  12.9%     -    0s
     0     0 45015.9844    0   35 39891.9568 45015.9844  12.8%     -    0s
     0     0 45015.9844    0   35 39891.9568 45015.9844  12.8%     -    0s
     0     0 44717.4867    0   27 39891.9568 44717.4867  12.1%     -    0s
     0     0 44190.4777    0   27 39891.9568 44190.4777  10.8%     -    0s
     0     0 44190.4777    0   28 39891.9568 44190.4777  10.8%     -    0s
     0     0 44190.4777    0   28 39891.9568 44190.4777  10.8%     -    0s
     0     0 43905.2553    0   26 39891.9568 43905.2553  10.1%     -    1s
     0     0 43168.0008    0   19 39891.9568 43168.0008  8.21%     -    1s
     0     0 43168.0008    0   16 39891.9568 43168.0008  8.21%     -    1s
     0     0 43168.0008    0   16 39891.9568 43168.0008  8.21%     -    1s
     0     0 43168.0008    0   34 39891.9568 43168.0008  8.21%     -    1s
     0     0 43168.0008    0   34 39891.9568 43168.0008  8.21%     -    1s
     0     2 43168.0008    0   34 39891.9568 43168.0008  8.21%     -    1s
*  394   120              42    39892.237031 41612.2181  4.31%   104    3s
*  520   157              48    39895.047760 39897.3790  0.01%  84.6    3s

Cutting planes:
  Implied bound: 3
  MIR: 17
  RLT: 1
  Relax-and-lift: 1

Explored 576 nodes (51268 simplex iterations) in 3.38 seconds (7.46 work units)
Thread count was 8 (of 8 available processors)

Solution count 4: 39895 39895 39892.2 39892 

Optimal solution found (tolerance 1.00e-04)
Best objective 3.989504776031e+04, best bound 3.989737901398e+04, gap 0.0058%
